clingo version 5.5.0
Reading from bike/show.lp
Solving...
Answer: 1
assign(stand,type,s1) assign(basket,type,b1) assign(rear_wheel,type,w2) assign(front_wheel,type,w2) assign(frame,type,f1) assign(bike,type,city_bike)
SATISFIABLE

Models       : 1
Calls        : 1
Time         : 0.002s (Solving: 0.00s 1st Model: 0.00s Unsat: 0.00s)
CPU Time     : 0.002s
